7476
[0, 23, 24, 25, 26, 49, 48, 47, 46, 69, 70, 71, 72, 50, 73, 75, 98, 97, 74, 96, 95, 94, 93, 92, 115, 116, 117, 118, 119, 120, 121, 144, 143, 142, 166, 167, 168, 169, 170, 193, 194, 195, 171, 172, 173, 174, 175, 176, 177, 200, 201, 202, 178, 179, 180, 203, 204, 227, 226, 225, 224, 223, 222, 221, 199, 198, 197, 196, 220, 219, 218, 217, 216, 215, 214, 213, 192, 191, 190, 189, 165, 164, 163, 141, 140, 138, 139, 162, 161, 184, 185, 186, 187, 188, 211, 212, 210, 209, 208, 207, 232, 231, 230, 253, 255, 254, 276, 277, 278, 279, 280, 281, 282, 305, 304, 303, 302, 301, 300, 299, 324, 323, 322, 345, 346, 347, 348, 370, 369, 393, 392, 368, 391, 414, 415, 416, 417, 418, 440, 439, 438, 437, 461, 460, 483, 484, 506, 507, 508, 509, 510, 511, 512, 535, 534, 533, 532, 531, 530, 529, 552, 553, 554, 555, 556, 557, 558, 559, 560, 561, 562, 563, 564, 565, 566, 567, 568, 569, 570, 571, 572, 573, 574, 551, 550, 549, 548, 547, 546, 545, 544, 543, 542, 541, 540, 539, 538, 537, 536, 514, 513, 515, 516, 517, 518, 519, 520, 521, 522, 523, 524, 525, 526, 527, 528, 505, 504, 503, 502, 501, 500, 499, 498, 497, 496, 495, 494, 493, 492, 491, 490, 489, 488, 487, 486, 485, 462, 463, 464, 465, 466, 467, 468, 469, 470, 471, 472, 473, 474, 475, 476, 477, 478, 479, 480, 482, 481, 459, 458, 457, 456, 455, 454, 453, 452, 451, 450, 449, 448, 447, 446, 445, 444, 443, 442, 441, 419, 420, 421, 422, 423, 424, 425, 426, 427, 428, 429, 430, 431, 432, 433, 434, 435, 436, 413, 390, 412, 388, 411, 410, 409, 386, 408, 407, 406, 405, 404, 403, 402, 401, 400, 399, 398, 397, 396, 395, 394, 371, 372, 373, 374, 375, 376, 377, 378, 379, 380, 381, 383, 382, 384, 385, 387, 389, 366, 367, 365, 364, 363, 362, 361, 360, 359, 358, 357, 356, 355, 354, 353, 352, 351, 350, 349, 325, 326, 327, 328, 329, 330, 331, 332, 333, 334, 335, 336, 337, 338, 339, 340, 341, 342, 343, 344, 321, 320, 319, 318, 317, 316, 315, 314, 313, 312, 311, 310, 309, 308, 307, 306, 283, 284, 285, 286, 287, 288, 289, 290, 291, 292, 293, 294, 295, 296, 297, 298, 275, 274, 273, 272, 271, 270, 269, 268, 267, 266, 265, 264, 263, 262, 261, 260, 259, 258, 257, 256, 233, 234, 235, 236, 237, 238, 239, 240, 241, 242, 243, 244, 245, 246, 247, 248, 249, 250, 251, 252, 229, 228, 205, 206, 183, 182, 181, 156, 155, 154, 132, 131, 130, 128, 129, 153, 152, 151, 150, 127, 126, 149, 148, 147, 146, 145, 123, 122, 99, 100, 124, 125, 102, 101, 103, 104, 105, 106, 107, 108, 109, 133, 110, 134, 135, 157, 158, 136, 159, 160, 137, 114, 113, 111, 112, 90, 91, 68, 67, 66, 89, 88, 87, 86, 85, 84, 83, 82, 59, 60, 61, 62, 63, 64, 65, 42, 43, 44, 45, 22, 21, 20, 19, 18, 41, 40, 39, 15, 17, 16, 14, 38, 37, 36, 35, 58, 57, 56, 55, 81, 80, 79, 78, 77, 76, 53, 54, 31, 30, 52, 51, 28, 27, 29, 7, 32, 10, 33, 34, 12, 11, 13, 9, 8, 6, 5, 4, 3, 2, 1]
